webassembly/ejemplos_dzn/folder12_json_53.dzn
TERM = { '.', 's(2)', 'in_1', 'local_0', 'local_1', 'in_6', 'in_2', 'in_4', 'in_3', 'in_9', 'in_8', 's(1)', 's(0)', 'in_7', 'in_5', 's(3)', 'in_0'};
null = '.';
s = 12;
n = 15;
ndeps = 5;
max_registers_sz = 5;
NR = 2;
registers = [|'local_0', 's(2)', |'local_1', 's(3)'|];
dependencies = [|'i32.store8_1', 'call[function_index(0)]_2', |'call[function_index(0)]_2', 'i32.store8_4', |'i32.store8_4', 'i32.store_8', |'i32.store_8', 'i32.store_9', |'i32.store_9', 'i32.load16_u_10'|];
GET_ENUM = { GET1, GET2, GET3, GET4, GET5, GET6, GET7};
SET_ENUM = { SET1, SET2, SET3, SET4, SET5, SET6, SET7};
TEE_ENUM = { TEE1, TEE2, TEE3, TEE4, TEE5, TEE6, TEE7};
N = 7;
OP = { 'call[function_index(0)]_2', 'i32.store8_1', 'i32.store8_4', 'i32.sub_0', 'i32.store_8', 'i32.store_9', 'i32.load16_u_10' };
in_ops = [0, 2, 2, 2, 2, 2, 1 ];
out_ops = [2, 0, 0, 1, 0, 0, 1 ];
in1 = ['.', 'in_1', 's(0)', 'in_4', 's(2)', 'in_7', 'in_9' ];
in2 = ['.', 'in_2', 'in_3', 'in_5', 'in_6', 'in_8', '.' ];
in3 = ['.', '.', '.', '.', '.', '.', '.' ];
out1 = ['s(1)', '.', '.', 's(2)', '.', '.', 's(3)' ];
out2 = ['s(0)', '.', '.', '.', '.', '.', '.' ];
out3 = ['.', '.', '.', '.', '.', '.', '.' ];
comm = [false, false, false, false, false, false, false ];
gas = [1, 1, 1, 1, 1, 1, 1 ];
sz = [1, 1, 1, 1, 1, 1, 1 ];
stor = [true, true, true, false, true, true, false ];
lb = [ 1, 1, 1, 1, 1, 1, 1 ];
ub = [ 12, 12, 12, 12, 12, 12, 12 ];
startstack = [ 'in_0', 'in_1', 'in_2', 'in_3', 'in_4', 'in_5', 'in_6', 'in_7', 'in_8', 'in_9', null, null, null, null, null ];
endstack = [ null, null, null, null, null, null, null, null, null, null, null, null, null, null, null ];
